NAME : XML100_3352_06
DIMENSION : 101
NB_CLUSTERS : 5
CLUSTERING_ALG : KMedoids
CLUSTERING_PARAMS : k(4)
CLUSTERS
1 0
2 2 4 6 10 13 16 22 25 27 29 33 42 45 46 50 52 55 59 60 64 68 71 72 80 82 86 89 94 96 98
3 3 11 12 15 18 19 21 34 36 37 44 47 49 53 67 73 77 83 84 90 93 95
4 5 7 9 31 32 39 40 43 51 57 58 63 65 66 69 70 74 75 76 81 85 87 88 91 92 97 100
5 1 8 14 17 20 23 24 26 28 30 35 38 41 48 54 56 61 62 78 79 99
EOF